CPXPARAM_MIP_Cuts_MIRCut#P20#0#CPXPARAM_MIP_Strategy_NodeSelect#P39#1#3.403056#0.804385
CPXPARAM_MIP_Cuts_MIRCut#P20#0#CPXPARAM_MIP_Strategy_NodeSelect#P39#2#3.010074#0.711496
CPXPARAM_MIP_Cuts_MIRCut#P20#1#CPXPARAM_MIP_Strategy_NodeSelect#P39#1#3.010014#0.711481
CPXPARAM_MIP_Cuts_MIRCut#P20#1#CPXPARAM_MIP_Strategy_NodeSelect#P39#2#1.018707#0.240793
CPXPARAM_MIP_Cuts_MIRCut#P20#1#CPXPARAM_MIP_Strategy_NodeSelect#P39#3#4.230630#1.000000
CPXPARAM_MIP_Cuts_MIRCut#P20#1#CPXPARAM_MIP_Strategy_SubAlgorithm#P45#1#1.209785#0.285959
CPXPARAM_MIP_Cuts_MIRCut#P20#1#CPXPARAM_MIP_Strategy_SubAlgorithm#P45#2#1.419442#0.335516
CPXPARAM_MIP_Cuts_MIRCut#P20#1#CPXPARAM_MIP_Strategy_SubAlgorithm#P45#3#1.894819#0.447881
CPXPARAM_MIP_Cuts_MIRCut#P20#1#CPXPARAM_MIP_Strategy_SubAlgorithm#P45#4#2.076152#0.490743
CPXPARAM_MIP_Cuts_MIRCut#P20#1#CPXPARAM_Preprocessing_Presolve#P57#1#2.076313#0.490781
CPXPARAM_MIP_Cuts_MIRCut#P20#2#CPXPARAM_MIP_Strategy_NodeSelect#P39#1#1.480240#0.349886
CPXPARAM_MIP_Cuts_MIRCut#P20#2#CPXPARAM_MIP_Strategy_NodeSelect#P39#2#2.984582#0.705470
CPXPARAM_MIP_Strategy_NodeSelect#P39#1#CPXPARAM_MIP_Strategy_SubAlgorithm#P45#1#2.984705#0.705499
CPXPARAM_MIP_Strategy_NodeSelect#P39#1#CPXPARAM_MIP_Strategy_SubAlgorithm#P45#2#1.419310#0.335484
CPXPARAM_MIP_Strategy_NodeSelect#P39#1#CPXPARAM_MIP_Strategy_SubAlgorithm#P45#3#1.894689#0.447850
CPXPARAM_MIP_Strategy_NodeSelect#P39#1#CPXPARAM_MIP_Strategy_SubAlgorithm#P45#4#2.076408#0.490803
CPXPARAM_MIP_Strategy_NodeSelect#P39#1#CPXPARAM_Preprocessing_Presolve#P57#1#2.076272#0.490771
CPXPARAM_MIP_Strategy_NodeSelect#P39#2#CPXPARAM_MIP_Strategy_SubAlgorithm#P45#1#4.108502#0.971132
